\ This file has been generated by DOcplex
\ ENCODING=ISO-8859-1
\Problem name: random_problem.lp

Minimize
 obj: - 468 x0 - 234 x1 + 90 x2 + 45 x3 + 116 x4 + 58 x5 - 856 x6 - 428 x7
      + 56 x8 + 28 x9 + [ 504 x0^2 + 504 x0*x1 + 384 x0*x2 + 192 x0*x3
      + 320 x0*x4 + 160 x0*x5 + 64 x0*x6 + 32 x0*x7 + 272 x0*x8 + 136 x0*x9
      + 126 x1^2 + 192 x1*x2 + 96 x1*x3 + 160 x1*x4 + 80 x1*x5 + 32 x1*x6
      + 16 x1*x7 + 136 x1*x8 + 68 x1*x9 + 448 x2^2 + 448 x2*x3 + 304 x2*x4
      + 152 x2*x5 + 256 x2*x6 + 128 x2*x7 + 272 x2*x8 + 136 x2*x9 + 112 x3^2
      + 152 x3*x4 + 76 x3*x5 + 128 x3*x6 + 64 x3*x7 + 136 x3*x8 + 68 x3*x9
      + 560 x4^2 + 560 x4*x5 - 384 x4*x6 - 192 x4*x7 - 80 x4*x8 - 40 x4*x9
      + 140 x5^2 - 192 x5*x6 - 96 x5*x7 - 40 x5*x8 - 20 x5*x9 + 3232 x6^2
      + 3232 x6*x7 + 848 x6*x8 + 424 x6*x9 + 808 x7^2 + 424 x7*x8 + 212 x7*x9
      + 536 x8^2 + 536 x8*x9 + 134 x9^2 ]/2
Subject To
 c0: 2 x0 + x1 + 2 x2 + x3 + 2 x4 + x5 + 2 x6 + x7 + 2 x8 + x9 = 3

Bounds
 0 <= x0 <= 1
 0 <= x1 <= 1
 0 <= x2 <= 1
 0 <= x3 <= 1
 0 <= x4 <= 1
 0 <= x5 <= 1
 0 <= x6 <= 1
 0 <= x7 <= 1
 0 <= x8 <= 1
 0 <= x9 <= 1

Binaries
 x0 x1 x2 x3 x4 x5 x6 x7 x8 x9
End
